p cnf 484 1209
c ind 354 355 356 357 358 359 360 361 362 363 0
c ind 364 365 366 367 368 369 370 371 372 373 0
c ind 374 375 376 377 378 379 380 381 382 383 0
c ind 384 385 386 387 388 389 390 391 392 393 0
c ind 394 395 396 397 398 399 400 401 402 403 0
c ind 404 405 406 407 408 409 410 411 412 413 0
c ind 414 415 416 417 418 419 420 421 422 423 0
c ind 424 425 426 427 428 429 430 431 432 433 0
c ind 434 435 436 437 438 439 440 441 442 443 0
c ind 444 445 446 447 448 449 450 451 452 453 0
c ind 454 455 456 457 458 459 460 461 462 463 0
c ind 464 465 466 467 468 469 470 471 472 473 0
c ind 474 475 476 477 478 479 480 481 482 1 0
c ret 226 235 325 326 327 328 329 330 331 332 0
c ret 333 334 236 335 336 337 338 339 340 341 0
c ret 342 343 344 237 345 346 347 348 349 350 0
c ret 351 352 353 238 239 240 241 242 243 244 0
c ret 227 245 246 247 248 249 250 251 252 253 0
c ret 254 228 255 256 257 258 259 260 261 262 0
c ret 263 264 229 265 266 267 268 269 270 271 0
c ret 272 273 274 230 275 276 277 278 279 280 0
c ret 281 282 283 284 231 285 286 287 288 289 0
c ret 290 291 292 293 294 232 295 296 297 298 0
c ret 299 300 301 302 303 304 233 305 306 307 0
c ret 308 309 310 311 312 313 314 234 315 316 0
c ret 317 318 319 320 321 322 323 324 0
2 -3 131 354 0
2 3 89 131 0
-2 -131 0
-2 3 -89 0
-2 -3 -354 0
3 4 88 0
3 4 5 -87 0
-3 -4 0
-3 -5 -88 0
-3 87 -88 0
4 289 -353 0
-4 -289 0
-4 353 0
5 85 -86 0
5 6 -84 -86 0
-5 86 0
-5 -6 -85 0
-5 84 -85 0
6 82 -83 0
6 7 -81 -83 0
-6 83 0
-6 -7 -82 0
-6 81 -82 0
7 79 -80 0
7 8 -78 -80 0
-7 80 0
-7 -8 -79 0
-7 78 -79 0
8 76 -77 0
8 9 -75 -77 0
-8 77 0
-8 -9 -76 0
-8 75 -76 0
9 73 -74 0
9 10 -72 -74 0
-9 74 0
-9 -10 -73 0
-9 72 -73 0
10 70 -71 0
10 11 -69 -71 0
-10 71 0
-10 -11 -70 0
-10 69 -70 0
11 67 -68 0
11 12 -66 -68 0
-11 68 0
-11 -12 -67 0
-11 66 -67 0
12 64 -65 0
12 13 -63 -65 0
-12 65 0
-12 -13 -64 0
-12 63 -64 0
13 61 -62 0
13 14 -60 -62 0
-13 62 0
-13 -14 -61 0
-13 60 -61 0
14 58 -59 0
14 15 -57 -59 0
-14 59 0
-14 -15 -58 0
-14 57 -58 0
15 55 -56 0
15 16 -54 -56 0
-15 56 0
-15 -16 -55 0
-15 54 -55 0
16 52 -53 0
16 17 -51 -53 0
-16 53 0
-16 -17 -52 0
-16 51 -52 0
17 49 -50 0
17 18 -48 -50 0
-17 50 0
-17 -18 -49 0
-17 48 -49 0
18 46 -47 0
18 19 -45 -47 0
-18 47 0
-18 -19 -46 0
-18 45 -46 0
19 43 -44 0
19 20 -42 -44 0
-19 44 0
-19 -20 -43 0
-19 42 -43 0
20 40 -41 0
20 21 -39 -41 0
-20 41 0
-20 -21 -40 0
-20 39 -40 0
21 37 -38 0
21 22 -36 -38 0
-21 38 0
-21 -22 -37 0
-21 36 -37 0
22 34 -35 0
22 23 -33 -35 0
-22 35 0
-22 -23 -34 0
-22 33 -34 0
23 31 -32 0
23 24 -30 -32 0
-23 32 0
-23 -24 -31 0
-23 30 -31 0
24 28 -29 0
24 25 -27 -29 0
-24 29 0
-24 -25 -28 0
-24 27 -28 0
25 26 -290 0
25 26 226 0
-25 -26 0
-25 -226 290 0
26 -227 291 0
-26 227 0
-26 -291 0
27 -228 291 0
27 -227 292 0
27 -227 -228 0
27 291 292 0
-27 228 -292 0
-27 227 -291 0
28 228 229 0
28 -292 -293 0
28 228 -293 0
28 229 -292 0
-28 -228 292 0
-28 -229 293 0
29 -230 293 0
29 -229 294 0
29 -229 -230 0
29 293 294 0
-29 230 -294 0
-29 229 -293 0
30 230 231 0
30 -294 -295 0
30 230 -295 0
30 231 -294 0
-30 -230 294 0
-30 -231 295 0
31 -232 295 0
31 -231 296 0
31 -231 -232 0
31 295 296 0
-31 232 -296 0
-31 231 -295 0
32 232 233 0
32 -296 -297 0
32 232 -297 0
32 233 -296 0
-32 -232 296 0
-32 -233 297 0
33 -234 297 0
33 -233 298 0
33 -233 -234 0
33 297 298 0
-33 234 -298 0
-33 233 -297 0
34 234 235 0
34 -298 -299 0
34 234 -299 0
34 235 -298 0
-34 -234 298 0
-34 -235 299 0
35 -236 299 0
35 -235 300 0
35 -235 -236 0
35 299 300 0
-35 236 -300 0
-35 235 -299 0
36 236 237 0
36 -300 -301 0
36 236 -301 0
36 237 -300 0
-36 -236 300 0
-36 -237 301 0
37 -238 301 0
37 -237 302 0
37 -237 -238 0
37 301 302 0
-37 238 -302 0
-37 237 -301 0
38 238 239 0
38 -302 -303 0
38 238 -303 0
38 239 -302 0
-38 -238 302 0
-38 -239 303 0
39 -240 303 0
39 -239 304 0
39 -239 -240 0
39 303 304 0
-39 240 -304 0
-39 239 -303 0
40 240 241 0
40 -304 -305 0
40 240 -305 0
40 241 -304 0
-40 -240 304 0
-40 -241 305 0
41 -242 305 0
41 -241 306 0
41 -241 -242 0
41 305 306 0
-41 242 -306 0
-41 241 -305 0
42 242 243 0
42 -306 -307 0
42 242 -307 0
42 243 -306 0
-42 -242 306 0
-42 -243 307 0
43 -244 307 0
43 -243 308 0
43 -243 -244 0
43 307 308 0
-43 244 -308 0
-43 243 -307 0
44 244 245 0
44 -308 -309 0
44 244 -309 0
44 245 -308 0
-44 -244 308 0
-44 -245 309 0
45 -246 309 0
45 -245 310 0
45 -245 -246 0
45 309 310 0
-45 246 -310 0
-45 245 -309 0
46 246 247 0
46 -310 -311 0
46 246 -311 0
46 247 -310 0
-46 -246 310 0
-46 -247 311 0
47 -248 311 0
47 -247 312 0
47 -247 -248 0
47 311 312 0
-47 248 -312 0
-47 247 -311 0
48 248 249 0
48 -312 -313 0
48 248 -313 0
48 249 -312 0
-48 -248 312 0
-48 -249 313 0
49 -250 313 0
49 -249 314 0
49 -249 -250 0
49 313 314 0
-49 250 -314 0
-49 249 -313 0
50 250 251 0
50 -314 -315 0
50 250 -315 0
50 251 -314 0
-50 -250 314 0
-50 -251 315 0
51 -252 315 0
51 -251 316 0
51 -251 -252 0
51 315 316 0
-51 252 -316 0
-51 251 -315 0
52 252 253 0
52 -316 -317 0
52 252 -317 0
52 253 -316 0
-52 -252 316 0
-52 -253 317 0
53 -254 317 0
53 -253 318 0
53 -253 -254 0
53 317 318 0
-53 254 -318 0
-53 253 -317 0
54 254 255 0
54 -318 -319 0
54 254 -319 0
54 255 -318 0
-54 -254 318 0
-54 -255 319 0
55 -256 319 0
55 -255 320 0
55 -255 -256 0
55 319 320 0
-55 256 -320 0
-55 255 -319 0
56 256 257 0
56 -320 -321 0
56 256 -321 0
56 257 -320 0
-56 -256 320 0
-56 -257 321 0
57 -258 321 0
57 -257 322 0
57 -257 -258 0
57 321 322 0
-57 258 -322 0
-57 257 -321 0
58 258 259 0
58 -322 -323 0
58 258 -323 0
58 259 -322 0
-58 -258 322 0
-58 -259 323 0
59 -260 323 0
59 -259 324 0
59 -259 -260 0
59 323 324 0
-59 260 -324 0
-59 259 -323 0
60 260 261 0
60 -324 -325 0
60 260 -325 0
60 261 -324 0
-60 -260 324 0
-60 -261 325 0
61 -262 325 0
61 -261 326 0
61 -261 -262 0
61 325 326 0
-61 262 -326 0
-61 261 -325 0
62 262 263 0
62 -326 -327 0
62 262 -327 0
62 263 -326 0
-62 -262 326 0
-62 -263 327 0
63 -264 327 0
63 -263 328 0
63 -263 -264 0
63 327 328 0
-63 264 -328 0
-63 263 -327 0
64 264 265 0
64 -328 -329 0
64 264 -329 0
64 265 -328 0
-64 -264 328 0
-64 -265 329 0
65 -266 329 0
65 -265 330 0
65 -265 -266 0
65 329 330 0
-65 266 -330 0
-65 265 -329 0
66 266 267 0
66 -330 -331 0
66 266 -331 0
66 267 -330 0
-66 -266 330 0
-66 -267 331 0
67 -268 331 0
67 -267 332 0
67 -267 -268 0
67 331 332 0
-67 268 -332 0
-67 267 -331 0
68 268 269 0
68 -332 -333 0
68 268 -333 0
68 269 -332 0
-68 -268 332 0
-68 -269 333 0
69 -270 333 0
69 -269 334 0
69 -269 -270 0
69 333 334 0
-69 270 -334 0
-69 269 -333 0
70 270 271 0
70 -334 -335 0
70 270 -335 0
70 271 -334 0
-70 -270 334 0
-70 -271 335 0
71 -272 335 0
71 -271 336 0
71 -271 -272 0
71 335 336 0
-71 272 -336 0
-71 271 -335 0
72 272 273 0
72 -336 -337 0
72 272 -337 0
72 273 -336 0
-72 -272 336 0
-72 -273 337 0
73 -274 337 0
73 -273 338 0
73 -273 -274 0
73 337 338 0
-73 274 -338 0
-73 273 -337 0
74 274 275 0
74 -338 -339 0
74 274 -339 0
74 275 -338 0
-74 -274 338 0
-74 -275 339 0
75 -276 339 0
75 -275 340 0
75 -275 -276 0
75 339 340 0
-75 276 -340 0
-75 275 -339 0
76 276 277 0
76 -340 -341 0
76 276 -341 0
76 277 -340 0
-76 -276 340 0
-76 -277 341 0
77 -278 341 0
77 -277 342 0
77 -277 -278 0
77 341 342 0
-77 278 -342 0
-77 277 -341 0
78 278 279 0
78 -342 -343 0
78 278 -343 0
78 279 -342 0
-78 -278 342 0
-78 -279 343 0
79 -280 343 0
79 -279 344 0
79 -279 -280 0
79 343 344 0
-79 280 -344 0
-79 279 -343 0
80 280 281 0
80 -344 -345 0
80 280 -345 0
80 281 -344 0
-80 -280 344 0
-80 -281 345 0
81 -282 345 0
81 -281 346 0
81 -281 -282 0
81 345 346 0
-81 282 -346 0
-81 281 -345 0
82 282 283 0
82 -346 -347 0
82 282 -347 0
82 283 -346 0
-82 -282 346 0
-82 -283 347 0
83 -284 347 0
83 -283 348 0
83 -283 -284 0
83 347 348 0
-83 284 -348 0
-83 283 -347 0
84 284 285 0
84 -348 -349 0
84 284 -349 0
84 285 -348 0
-84 -284 348 0
-84 -285 349 0
85 -286 349 0
85 -285 350 0
85 -285 -286 0
85 349 350 0
-85 286 -350 0
-85 285 -349 0
86 286 287 0
86 -350 -351 0
86 286 -351 0
86 287 -350 0
-86 -286 350 0
-86 -287 351 0
87 -288 351 0
87 -287 352 0
87 -287 -288 0
87 351 352 0
-87 288 -352 0
-87 287 -351 0
88 288 289 0
88 -352 -353 0
88 288 -353 0
88 289 -352 0
-88 -288 352 0
-88 -289 353 0
89 -90 -111 -121 -126 0
-89 126 0
-89 90 0
-89 121 0
-89 111 0
90 -91 -96 -101 -106 0
-90 106 0
-90 91 0
-90 101 0
-90 96 0
91 -92 -93 -94 -95 0
-91 95 0
-91 92 0
-91 94 0
-91 93 0
92 310 311 312 313 0
-92 -313 0
-92 -312 0
-92 -310 0
-92 -311 0
93 306 307 308 309 0
-93 -309 0
-93 -308 0
-93 -306 0
-93 -307 0
94 318 319 320 321 0
-94 -321 0
-94 -320 0
-94 -318 0
-94 -319 0
95 314 315 316 317 0
-95 -317 0
-95 -316 0
-95 -314 0
-95 -315 0
96 -97 -98 -99 -100 0
-96 100 0
-96 97 0
-96 99 0
-96 98 0
97 294 295 296 297 0
-97 -297 0
-97 -296 0
-97 -294 0
-97 -295 0
98 288 289 292 293 0
-98 -293 0
-98 -292 0
-98 -288 0
-98 -289 0
99 302 303 304 305 0
-99 -305 0
-99 -304 0
-99 -302 0
-99 -303 0
100 298 299 300 301 0
-100 -301 0
-100 -300 0
-100 -298 0
-100 -299 0
101 -102 -103 -104 -105 0
-101 105 0
-101 102 0
-101 104 0
-101 103 0
102 342 343 344 345 0
-102 -345 0
-102 -344 0
-102 -342 0
-102 -343 0
103 338 339 340 341 0
-103 -341 0
-103 -340 0
-103 -338 0
-103 -339 0
104 350 351 352 353 0
-104 -353 0
-104 -352 0
-104 -350 0
-104 -351 0
105 346 347 348 349 0
-105 -349 0
-105 -348 0
-105 -346 0
-105 -347 0
106 -107 -108 -109 -110 0
-106 110 0
-106 107 0
-106 109 0
-106 108 0
107 326 327 328 329 0
-107 -329 0
-107 -328 0
-107 -326 0
-107 -327 0
108 322 323 324 325 0
-108 -325 0
-108 -324 0
-108 -322 0
-108 -323 0
109 334 335 336 337 0
-109 -337 0
-109 -336 0
-109 -334 0
-109 -335 0
110 330 331 332 333 0
-110 -333 0
-110 -332 0
-110 -330 0
-110 -331 0
111 -112 -117 -119 -120 0
-111 120 0
-111 112 0
-111 119 0
-111 117 0
112 -113 -114 -115 -116 0
-112 116 0
-112 113 0
-112 115 0
-112 114 0
113 244 245 246 247 0
-113 -247 0
-113 -246 0
-113 -244 0
-113 -245 0
114 240 241 242 243 0
-114 -243 0
-114 -242 0
-114 -240 0
-114 -241 0
115 252 253 254 255 0
-115 -255 0
-115 -254 0
-115 -252 0
-115 -253 0
116 248 249 250 251 0
-116 -251 0
-116 -250 0
-116 -248 0
-116 -249 0
-26 117 -118 226 -290 0
-117 -226 0
-117 118 0
26 -117 0
-117 290 0
118 228 229 230 231 0
-118 -231 0
-118 -230 0
-118 -228 0
-118 -229 0
119 236 237 238 239 0
-119 -239 0
-119 -238 0
-119 -236 0
-119 -237 0
120 232 233 234 235 0
-120 -235 0
-120 -234 0
-120 -232 0
-120 -233 0
121 -122 -123 -124 -125 0
-121 125 0
-121 122 0
-121 124 0
-121 123 0
122 276 277 278 279 0
-122 -279 0
-122 -278 0
-122 -276 0
-122 -277 0
123 272 273 274 275 0
-123 -275 0
-123 -274 0
-123 -272 0
-123 -273 0
124 284 285 286 287 0
-124 -287 0
-124 -286 0
-124 -284 0
-124 -285 0
125 280 281 282 283 0
-125 -283 0
-125 -282 0
-125 -280 0
-125 -281 0
126 -127 -128 -129 -130 0
-126 130 0
-126 127 0
-126 129 0
-126 128 0
127 260 261 262 263 0
-127 -263 0
-127 -262 0
-127 -260 0
-127 -261 0
128 256 257 258 259 0
-128 -259 0
-128 -258 0
-128 -256 0
-128 -257 0
129 268 269 270 271 0
-129 -271 0
-129 -270 0
-129 -268 0
-129 -269 0
130 264 265 266 267 0
-130 -267 0
-130 -266 0
-130 -264 0
-130 -265 0
131 132 -205 -216 -221 0
-131 -132 0
-131 221 0
-131 216 0
-131 205 0
132 -133 -175 -180 -185 0
-132 185 0
-132 133 0
-132 180 0
-132 175 0
133 -134 -137 -142 -152 0
-133 152 0
-133 134 0
-133 142 0
-133 137 0
134 -135 -136 366 430 0
134 -135 -136 -366 -430 0
-134 136 0
-134 -366 430 0
-134 135 0
-134 366 -430 0
135 -376 410 -440 474 0
135 376 -410 440 -474 0
135 376 410 440 474 0
135 -376 -410 -440 -474 0
-135 -376 440 0
-135 376 -440 0
-135 410 -474 0
-135 -410 474 0
136 406 413 0
136 -470 -477 0
136 406 -477 0
136 413 -470 0
-136 -406 470 0
-136 -413 477 0
137 -138 -141 363 427 0
137 -138 -141 -363 -427 0
-137 141 0
-137 -363 427 0
-137 138 0
-137 363 -427 0
138 139 140 414 478 0
138 139 140 -414 -478 0
-138 -139 0
-138 -414 478 0
-138 -140 0
-138 414 -478 0
139 357 -421 0
-139 -357 0
-139 421 0
140 -411 475 0
-140 411 0
-140 -475 0
141 356 357 0
141 -420 -421 0
141 356 -421 0
141 357 -420 0
-141 -356 420 0
-141 -357 421 0
142 -143 -145 -148 -151 0
-142 151 0
-142 143 0
-142 148 0
-142 145 0
143 -144 -395 -459 0
143 -144 395 459 0
-143 144 0
-143 -395 459 0
-143 395 -459 0
144 391 394 0
144 -455 -458 0
144 391 -458 0
144 394 -455 0
-144 -391 455 0
-144 -394 458 0
145 146 147 360 424 0
145 146 147 -360 -424 0
-145 -146 0
-145 -360 424 0
-145 -147 0
-145 360 -424 0
146 394 -458 0
-146 -394 0
-146 458 0
147 356 -420 0
-147 -356 0
-147 420 0
148 149 150 373 437 0
148 149 150 -373 -437 0
-148 -149 0
-148 -373 437 0
-148 -150 0
-148 373 -437 0
149 406 -470 0
-149 -406 0
-149 470 0
150 367 -431 0
-150 -367 0
-150 431 0
151 -383 398 -447 462 0
151 383 -398 447 -462 0
151 383 398 447 462 0
151 -383 -398 -447 -462 0
-151 -383 447 0
-151 383 -447 0
-151 398 -462 0
-151 -398 462 0
152 -153 -156 -159 -164 0
-152 164 0
-152 153 0
-152 159 0
-152 156 0
153 154 155 415 479 0
153 154 155 -415 -479 0
-153 -154 0
-153 -415 479 0
-153 -155 0
-153 415 -479 0
154 -416 480 0
-154 416 0
-154 -480 0
155 417 -481 0
-155 -417 0
-155 481 0
156 157 158 408 472 0
156 157 158 -408 -472 0
-156 -157 0
-156 -408 472 0
-156 -158 0
-156 408 -472 0
157 365 -429 0
-157 -365 0
-157 429 0
158 374 -438 0
-158 -374 0
-158 438 0
159 -160 -161 378 442 0
159 -160 -161 -378 -442 0
-159 161 0
-159 -378 442 0
-159 160 0
-159 378 -442 0
160 -375 -436 0
160 372 439 0
160 372 -375 0
160 -436 439 0
-160 -372 436 0
-160 375 -439 0
161 -162 163 -439 0
161 -162 163 375 0
-161 162 0
-161 -163 0
-161 -375 439 0
162 -416 -481 0
162 417 480 0
162 480 -481 0
162 -416 417 0
-162 -417 481 0
-162 416 -480 0
163 -374 438 0
-163 374 0
-163 -438 0
164 -165 -168 -169 -170 0
-164 170 0
-164 165 0
-164 169 0
-164 168 0
165 166 167 381 445 0
165 166 167 -381 -445 0
-165 -166 0
-165 -381 445 0
-165 -167 0
-165 381 -445 0
166 -382 446 0
-166 382 0
-166 -446 0
167 390 -454 0
-167 -390 0
-167 454 0
168 -411 426 0
168 -362 475 0
168 -362 -411 0
168 426 475 0
-168 411 -475 0
-168 362 -426 0
169 -403 446 0
169 -382 467 0
169 -382 -403 0
169 446 467 0
-169 403 -467 0
-169 382 -446 0
170 -171 -172 -173 -174 0
-170 174 0
-170 171 0
-170 173 0
-170 172 0
171 -400 450 0
171 -386 464 0
171 -386 -400 0
171 450 464 0
-171 400 -464 0
-171 386 -450 0
172 362 365 0
172 -426 -429 0
172 362 -429 0
172 365 -426 0
-172 -362 426 0
-172 -365 429 0
173 390 403 0
173 -454 -467 0
173 390 -467 0
173 403 -454 0
-173 -390 454 0
-173 -403 467 0
174 386 400 0
174 -450 -464 0
174 386 -464 0
174 400 -450 0
-174 -386 450 0
-174 -400 464 0
175 -176 -177 -178 -179 0
-175 179 0
-175 176 0
-175 178 0
-175 177 0
176 -397 402 -461 466 0
176 397 -402 461 -466 0
176 397 402 461 466 0
176 -397 -402 -461 -466 0
-176 -397 461 0
-176 397 -461 0
-176 402 -466 0
-176 -402 466 0
177 -355 385 -419 449 0
177 355 -385 419 -449 0
177 355 385 419 449 0
177 -355 -385 -419 -449 0
-177 -355 419 0
-177 355 -419 0
-177 385 -449 0
-177 -385 449 0
178 -392 418 -456 482 0
178 392 -418 456 -482 0
178 392 418 456 482 0
178 -392 -418 -456 -482 0
-178 -392 456 0
-178 392 -456 0
-178 418 -482 0
-178 -418 482 0
179 -377 387 -441 451 0
179 377 -387 441 -451 0
179 377 387 441 451 0
179 -377 -387 -441 -451 0
-179 -377 441 0
-179 377 -441 0
-179 387 -451 0
-179 -387 451 0
180 -181 -182 -183 -184 0
-180 184 0
-180 181 0
-180 183 0
-180 182 0
181 -358 405 -422 469 0
181 358 -405 422 -469 0
181 358 405 422 469 0
181 -358 -405 -422 -469 0
-181 -358 422 0
-181 358 -422 0
-181 405 -469 0
-181 -405 469 0
182 -368 412 -432 476 0
182 368 -412 432 -476 0
182 368 412 432 476 0
182 -368 -412 -432 -476 0
-182 -368 432 0
-182 368 -432 0
-182 412 -476 0
-182 -412 476 0
183 -396 404 -460 468 0
183 396 -404 460 -468 0
183 396 404 460 468 0
183 -396 -404 -460 -468 0
-183 -396 460 0
-183 396 -460 0
-183 404 -468 0
-183 -404 468 0
184 -371 379 -435 443 0
184 371 -379 435 -443 0
184 371 379 435 443 0
184 -371 -379 -435 -443 0
-184 -371 435 0
-184 371 -435 0
-184 379 -443 0
-184 -379 443 0
185 -186 -191 -192 -193 0
-185 193 0
-185 186 0
-185 192 0
-185 191 0
186 -187 -188 388 452 0
186 -187 -188 -388 -452 0
-186 188 0
-186 -388 452 0
-186 187 0
-186 388 -452 0
187 367 369 0
187 -431 -433 0
187 367 -433 0
187 369 -431 0
-187 -367 431 0
-187 -369 433 0
188 -189 190 -369 0
188 -189 190 433 0
-188 189 0
-188 -190 0
-188 369 -433 0
189 -391 423 0
189 -359 455 0
189 -359 -391 0
189 423 455 0
-189 391 -455 0
-189 359 -423 0
190 -389 453 0
-190 389 0
-190 -453 0
191 -361 384 -425 448 0
191 361 -384 425 -448 0
191 361 384 425 448 0
191 -361 -384 -425 -448 0
-191 -361 425 0
-191 361 -425 0
-191 384 -448 0
-191 -384 448 0
192 -393 399 -457 463 0
192 393 -399 457 -463 0
192 393 399 457 463 0
192 -393 -399 -457 -463 0
-192 -393 457 0
-192 393 -457 0
-192 399 -463 0
-192 -399 463 0
193 -194 -200 -203 -204 0
-193 204 0
-193 194 0
-193 203 0
-193 200 0
194 -195 -198 -199 0
-194 195 0
-194 198 0
-194 199 0
195 196 197 370 434 0
195 196 197 -370 -434 0
-195 -196 0
-195 -370 434 0
-195 -197 0
-195 370 -434 0
196 407 -471 0
-196 -407 0
-196 471 0
197 -364 428 0
-197 364 0
-197 -428 0
198 -389 436 0
198 -372 453 0
198 -372 -389 0
198 436 453 0
-198 389 -453 0
-198 372 -436 0
199 -409 -471 0
199 407 473 0
199 407 -409 0
199 -471 473 0
-199 -407 471 0
-199 409 -473 0
200 201 202 401 465 0
200 201 202 -401 -465 0
-200 -201 0
-200 -401 465 0
-200 -202 0
-200 401 -465 0
201 380 -444 0
-201 -380 0
-201 444 0
202 -359 423 0
-202 359 0
-202 -423 0
203 -413 428 0
203 -364 477 0
203 -364 -413 0
203 428 477 0
-203 413 -477 0
-203 364 -428 0
204 380 409 0
204 -444 -473 0
204 380 -473 0
204 409 -444 0
-204 -380 444 0
-204 -409 473 0
205 -206 -211 -214 -215 0
-205 215 0
-205 206 0
-205 214 0
-205 211 0
206 -207 -208 -209 -210 0
-206 210 0
-206 207 0
-206 209 0
-206 208 0
-45 -46 -47 -48 207 0
48 -207 0
45 -207 0
47 -207 0
46 -207 0
-41 -42 -43 -44 208 0
44 -208 0
41 -208 0
43 -208 0
42 -208 0
-53 -54 -55 -56 209 0
56 -209 0
53 -209 0
55 -209 0
54 -209 0
-49 -50 -51 -52 210 0
52 -210 0
49 -210 0
51 -210 0
50 -210 0
-27 -28 211 -212 -213 0
-211 213 0
27 -211 0
-211 212 0
28 -211 0
-29 -30 -31 -32 212 0
32 -212 0
29 -212 0
31 -212 0
30 -212 0
4 26 213 226 290 0
4 26 213 -226 -290 0
-4 -213 0
-213 -226 290 0
-26 -213 0
-213 226 -290 0
-37 -38 -39 -40 214 0
40 -214 0
37 -214 0
39 -214 0
38 -214 0
-33 -34 -35 -36 215 0
36 -215 0
33 -215 0
35 -215 0
34 -215 0
216 -217 -218 -219 -220 0
-216 220 0
-216 217 0
-216 219 0
-216 218 0
-77 -78 -79 -80 217 0
80 -217 0
77 -217 0
79 -217 0
78 -217 0
-73 -74 -75 -76 218 0
76 -218 0
73 -218 0
75 -218 0
74 -218 0
-85 -86 -87 -88 219 0
88 -219 0
85 -219 0
87 -219 0
86 -219 0
-81 -82 -83 -84 220 0
84 -220 0
81 -220 0
83 -220 0
82 -220 0
221 -222 -223 -224 -225 0
-221 225 0
-221 222 0
-221 224 0
-221 223 0
-61 -62 -63 -64 222 0
64 -222 0
61 -222 0
63 -222 0
62 -222 0
-57 -58 -59 -60 223 0
60 -223 0
57 -223 0
59 -223 0
58 -223 0
-69 -70 -71 -72 224 0
72 -224 0
69 -224 0
71 -224 0
70 -224 0
-65 -66 -67 -68 225 0
68 -225 0
65 -225 0
67 -225 0
66 -225 0
1 -2 0
-1 2 0
483 0

